10  5   1   
5   1   2   23  1   3   45  1   1   82  1   5   84  1   4   38  
5   1   3   21  1   2   29  1   1   18  1   5   41  1   4   50  
5   1   3   38  1   4   54  1   5   16  1   1   52  1   2   52  
5   1   5   37  1   1   54  1   3   74  1   2   62  1   4   57  
5   1   5   57  1   1   81  1   2   61  1   4   68  1   3   30  
5   1   5   81  1   1   79  1   2   89  1   3   89  1   4   11  
5   1   4   33  1   3   20  1   1   91  1   5   20  1   2   66  
5   1   5   24  1   2   84  1   1   32  1   3   55  1   4   8   
5   1   5   56  1   1   7   1   4   54  1   3   64  1   2   39  
5   1   5   40  1   2   83  1   1   19  1   3   8   1   4   7   
